n = 54;
rows = 144;
supports = [|
  {1},{1},
 |{1},10..46,
 |{2},{2},
 |{2},11..47,
 |{3},{3},
 |{3},12..48,
 |{4},{4},
 |{4},13..49,
 |{5},{5},
 |{5},14..50,
 |{6},{6},
 |{6},15..51,
 |{7},{7},
 |{7},16..52,
 |{8},{8},
 |{8},17..53,
 |{9},{9},
 |{9},18..54,
 |{10},{10},
 |{10},{1},
 |{10},19..54,
 |{11},{11},
 |{11},1..2,
 |{11},20..54,
 |{12},{12},
 |{12},1..3,
 |{12},21..54,
 |{13},{13},
 |{13},1..4,
 |{13},22..54,
 |{14},{14},
 |{14},1..5,
 |{14},23..54,
 |{15},{15},
 |{15},1..6,
 |{15},24..54,
 |{16},{16},
 |{16},1..7,
 |{16},25..54,
 |{17},{17},
 |{17},1..8,
 |{17},26..54,
 |{18},{18},
 |{18},1..9,
 |{18},27..54,
 |{19},{19},
 |{19},1..10,
 |{19},28..54,
 |{20},{20},
 |{20},1..11,
 |{20},29..54,
 |{21},{21},
 |{21},1..12,
 |{21},30..54,
 |{22},{22},
 |{22},1..13,
 |{22},31..54,
 |{23},{23},
 |{23},1..14,
 |{23},32..54,
 |{24},{24},
 |{24},1..15,
 |{24},33..54,
 |{25},{25},
 |{25},1..16,
 |{25},34..54,
 |{26},{26},
 |{26},1..17,
 |{26},35..54,
 |{27},{27},
 |{27},1..18,
 |{27},36..54,
 |{28},{28},
 |{28},1..19,
 |{28},37..54,
 |{29},{29},
 |{29},1..20,
 |{29},38..54,
 |{30},{30},
 |{30},1..21,
 |{30},39..54,
 |{31},{31},
 |{31},1..22,
 |{31},40..54,
 |{32},{32},
 |{32},1..23,
 |{32},41..54,
 |{33},{33},
 |{33},1..24,
 |{33},42..54,
 |{34},{34},
 |{34},1..25,
 |{34},43..54,
 |{35},{35},
 |{35},1..26,
 |{35},44..54,
 |{36},{36},
 |{36},1..27,
 |{36},45..54,
 |{37},{37},
 |{37},1..28,
 |{37},46..54,
 |{38},{38},
 |{38},1..29,
 |{38},47..54,
 |{39},{39},
 |{39},1..30,
 |{39},48..54,
 |{40},{40},
 |{40},1..31,
 |{40},49..54,
 |{41},{41},
 |{41},1..32,
 |{41},50..54,
 |{42},{42},
 |{42},1..33,
 |{42},51..54,
 |{43},{43},
 |{43},1..34,
 |{43},52..54,
 |{44},{44},
 |{44},1..35,
 |{44},53..54,
 |{45},{45},
 |{45},1..36,
 |{45},{54},
 |{46},{46},
 |{46},1..37,
 |{47},{47},
 |{47},2..38,
 |{48},{48},
 |{48},3..39,
 |{49},{49},
 |{49},4..40,
 |{50},{50},
 |{50},5..41,
 |{51},{51},
 |{51},6..42,
 |{52},{52},
 |{52},7..43,
 |{53},{53},
 |{53},8..44,
 |{54},{54},
 |{54},9..45 |];

t = 124;

indexes = [|
    0,2,
  | 0,6,
  | 0,10,
  | 0,17,
  | 0,31,
  | 0,43,
  | 0,44,
  | 0,46,
  | 0,49,
  | 1,17,
  | 1,40,
  | 2,5,
  | 2,14,
  | 2,26,
  | 2,31,
  | 2,43,
  | 2,46,
  | 2,52,
  | 3,9,
  | 3,33,
  | 3,48,
  | 4,8,
  | 4,25,
  | 4,28,
  | 4,49,
  | 5,14,
  | 5,26,
  | 6,25,
  | 6,46,
  | 6,49,
  | 7,13,
  | 7,27,
  | 7,32,
  | 7,34,
  | 8,29,
  | 8,34,
  | 9,33,
  | 9,48,
  | 10,11,
  | 10,45,
  | 10,46,
  | 10,48,
  | 10,51,
  | 11,45,
  | 11,46,
  | 12,16,
  | 12,23,
  | 12,24,
  | 12,36,
  | 12,38,
  | 12,42,
  | 13,22,
  | 13,29,
  | 13,32,
  | 14,18,
  | 14,19,
  | 14,21,
  | 14,26,
  | 14,52,
  | 15,18,
  | 15,27,
  | 15,35,
  | 15,37,
  | 15,47,
  | 15,50,
  | 16,24,
  | 16,36,
  | 16,38,
  | 16,45,
  | 16,53,
  | 17,20,
  | 17,40,
  | 17,44,
  | 17,46,
  | 18,19,
  | 18,31,
  | 18,35,
  | 18,43,
  | 18,47,
  | 20,46,
  | 21,26,
  | 21,30,
  | 21,52,
  | 22,29,
  | 23,42,
  | 23,50,
  | 24,36,
  | 24,38,
  | 24,50,
  | 24,53,
  | 25,28,
  | 25,46,
  | 26,28,
  | 26,30,
  | 27,34,
  | 27,37,
  | 27,50,
  | 28,30,
  | 29,34,
  | 31,43,
  | 31,46,
  | 32,35,
  | 32,37,
  | 33,39,
  | 33,41,
  | 35,37,
  | 35,47,
  | 36,38,
  | 36,50,
  | 37,50,
  | 38,42,
  | 38,50,
  | 39,41,
  | 39,44,
  | 39,46,
  | 42,50,
  | 43,46,
  | 44,46,
  | 45,46,
  | 45,53,
  | 46,48,
  | 46,51,
  | 48,51,
  | 50,53 |];

